; PUSH cw_3 SWAP1 PUSH cw_2 CALLDATALOAD SWAP1 => PUSH cw_2 CALLDATALOAD PUSH cw_3 SWAP2
(set-option :produce-proofs true)
; 
(set-info :status unknown)
(declare-fun storage_t ((_ BitVec 256) (_ BitVec 256) (_ BitVec 256) (_ BitVec 256) Int (_ BitVec 256)) (_ BitVec 256))
(declare-fun w_2 () (_ BitVec 256))
(declare-fun w_3 () (_ BitVec 256))
(declare-fun storage_s ((_ BitVec 256) (_ BitVec 256) (_ BitVec 256) (_ BitVec 256) Int (_ BitVec 256)) (_ BitVec 256))
(declare-fun exc_halt_t (Int) Bool)
(declare-fun exc_halt_s (Int) Bool)
(declare-fun stack_t ((_ BitVec 256) (_ BitVec 256) (_ BitVec 256) (_ BitVec 256) Int (_ BitVec 6)) (_ BitVec 256))
(declare-fun stack_s ((_ BitVec 256) (_ BitVec 256) (_ BitVec 256) (_ BitVec 256) Int (_ BitVec 6)) (_ BitVec 256))
(declare-fun sc_t (Int) (_ BitVec 6))
(declare-fun sc_s (Int) (_ BitVec 6))
(declare-fun used_gas_t ((_ BitVec 256) (_ BitVec 256) (_ BitVec 256) (_ BitVec 256) Int) Int)
(declare-fun used_gas_s ((_ BitVec 256) (_ BitVec 256) (_ BitVec 256) (_ BitVec 256) Int) Int)
(declare-fun f_CALLDATALOAD ((_ BitVec 256) (_ BitVec 256) (_ BitVec 256) (_ BitVec 256) (_ BitVec 256)) (_ BitVec 256))
(assert
 (exists ((x_0 (_ BitVec 256)) (x_CALLDATALOAD_0 (_ BitVec 256)) )(let (($x1253 (forall ((w (_ BitVec 256)) )(let ((?x462 (storage_t x_0 w_3 w_2 x_CALLDATALOAD_0 4 w)))
 (let ((?x1260 (storage_s x_0 w_3 w_2 x_CALLDATALOAD_0 5 w)))
 (= ?x1260 ?x462))))
 ))
 (let (($x7854 (exc_halt_t 4)))
 (let (($x11317 (exc_halt_s 5)))
 (let (($x8936 (= $x11317 $x7854)))
 (let (($x2886 (forall ((n (_ BitVec 6)) )(let ((?x5558 (stack_t x_0 w_3 w_2 x_CALLDATALOAD_0 4 n)))
 (let ((?x7477 (stack_s x_0 w_3 w_2 x_CALLDATALOAD_0 5 n)))
 (let (($x9490 (= ?x7477 ?x5558)))
 (let ((?x4818 (sc_t 4)))
 (let (($x1923 (bvsle ?x4818 n)))
 (or $x1923 $x9490)))))))
 ))
 (let ((?x4818 (sc_t 4)))
 (let ((?x4319 (sc_s 5)))
 (let (($x10544 (= ?x4319 ?x4818)))
 (let ((?x9345 (used_gas_t x_0 w_3 w_2 x_CALLDATALOAD_0 0)))
 (let ((?x10914 (used_gas_s x_0 w_3 w_2 x_CALLDATALOAD_0 0)))
 (let (($x7729 (= ?x10914 ?x9345)))
 (let (($x4713 (forall ((w (_ BitVec 256)) )(let ((?x11807 (storage_t x_0 w_3 w_2 x_CALLDATALOAD_0 0 w)))
 (let ((?x9851 (storage_s x_0 w_3 w_2 x_CALLDATALOAD_0 0 w)))
 (= ?x9851 ?x11807))))
 ))
 (let (($x56 (exc_halt_t 0)))
 (let (($x57 (exc_halt_s 0)))
 (let (($x58 (= $x57 $x56)))
 (let (($x10416 (forall ((n (_ BitVec 6)) )(let ((?x63 (sc_t 0)))
 (let (($x2855 (bvsle ?x63 n)))
 (let ((?x1778 (stack_t x_0 w_3 w_2 x_CALLDATALOAD_0 0 n)))
 (let ((?x2817 (stack_s x_0 w_3 w_2 x_CALLDATALOAD_0 0 n)))
 (let (($x2426 (= ?x2817 ?x1778)))
 (or $x2426 $x2855)))))))
 ))
 (let ((?x63 (sc_t 0)))
 (let ((?x72 (sc_s 0)))
 (let (($x73 (= ?x72 ?x63)))
 (let (($x8170 (= $x7854 (or (exc_halt_t 3) (not (bvsle (_ bv0 6) (bvadd (_ bv61 6) (sc_t 3))))))))
 (let (($x4557 (forall ((w (_ BitVec 256)) )(let ((?x2904 (storage_t x_0 w_3 w_2 x_CALLDATALOAD_0 3 w)))
 (let ((?x462 (storage_t x_0 w_3 w_2 x_CALLDATALOAD_0 4 w)))
 (= ?x462 ?x2904))))
 ))
 (let (($x2408 (forall ((n (_ BitVec 6)) )(let ((?x10548 (stack_t x_0 w_3 w_2 x_CALLDATALOAD_0 3 n)))
 (let ((?x5558 (stack_t x_0 w_3 w_2 x_CALLDATALOAD_0 4 n)))
 (or (bvsle (bvadd (_ bv61 6) (sc_t 3)) n) (= ?x5558 ?x10548)))))
 ))
 (let ((?x6438 (sc_t 3)))
 (let (($x7248 (= ?x4818 ?x6438)))
 (let (($x4474 (= (used_gas_t x_0 w_3 w_2 x_CALLDATALOAD_0 4) (+ 3 (used_gas_t x_0 w_3 w_2 x_CALLDATALOAD_0 3)))))
 (let (($x8292 (= (stack_t x_0 w_3 w_2 x_CALLDATALOAD_0 4 (bvadd (_ bv62 6) ?x4818)) (stack_t x_0 w_3 w_2 x_CALLDATALOAD_0 3 (bvadd (_ bv62 6) ?x6438)))))
 (let (($x8865 (= (stack_t x_0 w_3 w_2 x_CALLDATALOAD_0 4 (bvadd (_ bv61 6) ?x4818)) (stack_t x_0 w_3 w_2 x_CALLDATALOAD_0 3 (bvadd (_ bv63 6) ?x6438)))))
 (let (($x8512 (= (stack_t x_0 w_3 w_2 x_CALLDATALOAD_0 4 (bvadd (_ bv63 6) ?x4818)) (stack_t x_0 w_3 w_2 x_CALLDATALOAD_0 3 (bvadd (_ bv61 6) ?x6438)))))
 (let (($x7778 (not (= ((_ extract 6 6) (bvadd (_ bv1 7) (concat (_ bv0 1) (sc_t 2)))) (_ bv0 1)))))
 (let (($x2163 (exc_halt_t 2)))
 (let (($x6783 (exc_halt_t 3)))
 (let (($x2133 (= $x6783 (or $x2163 $x7778))))
 (let (($x10680 (forall ((w (_ BitVec 256)) )(let ((?x9314 (storage_t x_0 w_3 w_2 x_CALLDATALOAD_0 2 w)))
 (let ((?x2904 (storage_t x_0 w_3 w_2 x_CALLDATALOAD_0 3 w)))
 (= ?x2904 ?x9314))))
 ))
 (let (($x11024 (forall ((n (_ BitVec 6)) )(let ((?x5828 (stack_t x_0 w_3 w_2 x_CALLDATALOAD_0 2 n)))
 (let ((?x10548 (stack_t x_0 w_3 w_2 x_CALLDATALOAD_0 3 n)))
 (let ((?x2714 (sc_t 2)))
 (let (($x1932 (bvsle ?x2714 n)))
 (or $x1932 (= ?x10548 ?x5828)))))))
 ))
 (let (($x10335 (= ?x6438 (bvadd (_ bv1 6) (sc_t 2)))))
 (let ((?x6111 (used_gas_t x_0 w_3 w_2 x_CALLDATALOAD_0 3)))
 (let (($x8830 (= $x2163 (or (exc_halt_t 1) (not (bvsle (_ bv0 6) (bvadd (_ bv63 6) (sc_t 1))))))))
 (let (($x5075 (forall ((w (_ BitVec 256)) )(let ((?x5597 (storage_t x_0 w_3 w_2 x_CALLDATALOAD_0 1 w)))
 (let ((?x9314 (storage_t x_0 w_3 w_2 x_CALLDATALOAD_0 2 w)))
 (= ?x9314 ?x5597))))
 ))
 (let (($x3199 (forall ((n (_ BitVec 6)) )(let ((?x11076 (stack_t x_0 w_3 w_2 x_CALLDATALOAD_0 1 n)))
 (let ((?x5828 (stack_t x_0 w_3 w_2 x_CALLDATALOAD_0 2 n)))
 (let ((?x7154 (sc_t 1)))
 (let ((?x2239 (bvadd (_ bv63 6) ?x7154)))
 (let (($x2352 (bvsle ?x2239 n)))
 (or $x2352 (= ?x5828 ?x11076))))))))
 ))
 (let ((?x7154 (sc_t 1)))
 (let ((?x2714 (sc_t 2)))
 (let (($x6225 (= ?x2714 ?x7154)))
 (let ((?x506 (used_gas_t x_0 w_3 w_2 x_CALLDATALOAD_0 2)))
 (let ((?x8342 (f_CALLDATALOAD x_0 w_3 w_2 x_CALLDATALOAD_0 (stack_t x_0 w_3 w_2 x_CALLDATALOAD_0 1 (bvadd (_ bv63 6) ?x7154)))))
 (let (($x8377 (exc_halt_t 1)))
 (let (($x7349 (= $x8377 (or $x56 (not (= ((_ extract 6 6) (bvadd (_ bv1 7) (concat (_ bv0 1) ?x63))) (_ bv0 1)))))))
 (let (($x6087 (forall ((w (_ BitVec 256)) )(let ((?x11807 (storage_t x_0 w_3 w_2 x_CALLDATALOAD_0 0 w)))
 (let ((?x5597 (storage_t x_0 w_3 w_2 x_CALLDATALOAD_0 1 w)))
 (= ?x5597 ?x11807))))
 ))
 (let (($x7833 (forall ((n (_ BitVec 6)) )(let ((?x63 (sc_t 0)))
 (let (($x2855 (bvsle ?x63 n)))
 (let ((?x1778 (stack_t x_0 w_3 w_2 x_CALLDATALOAD_0 0 n)))
 (let ((?x11076 (stack_t x_0 w_3 w_2 x_CALLDATALOAD_0 1 n)))
 (or (= ?x11076 ?x1778) $x2855))))))
 ))
 (let (($x6089 (= ?x7154 (bvadd (_ bv1 6) ?x63))))
 (let (($x8880 (= $x11317 (or (exc_halt_s 4) (not (bvsle (_ bv0 6) (bvadd (_ bv62 6) (sc_s 4))))))))
 (let (($x2610 (forall ((w (_ BitVec 256)) )(let ((?x7250 (storage_s x_0 w_3 w_2 x_CALLDATALOAD_0 4 w)))
 (let ((?x1260 (storage_s x_0 w_3 w_2 x_CALLDATALOAD_0 5 w)))
 (= ?x1260 ?x7250))))
 ))
 (let (($x3159 (forall ((n (_ BitVec 6)) )(let ((?x2692 (stack_s x_0 w_3 w_2 x_CALLDATALOAD_0 4 n)))
 (let ((?x7477 (stack_s x_0 w_3 w_2 x_CALLDATALOAD_0 5 n)))
 (let ((?x4305 (sc_s 4)))
 (let ((?x5394 (bvadd (_ bv62 6) ?x4305)))
 (let (($x53 (bvsle ?x5394 n)))
 (or $x53 (= ?x7477 ?x2692))))))))
 ))
 (let ((?x4305 (sc_s 4)))
 (let (($x9760 (= ?x4319 ?x4305)))
 (let (($x6835 (= (used_gas_s x_0 w_3 w_2 x_CALLDATALOAD_0 5) (+ 3 (used_gas_s x_0 w_3 w_2 x_CALLDATALOAD_0 4)))))
 (let ((?x4388 (bvadd (_ bv63 6) ?x4305)))
 (let ((?x5458 (stack_s x_0 w_3 w_2 x_CALLDATALOAD_0 4 ?x4388)))
 (let (($x4336 (= (stack_s x_0 w_3 w_2 x_CALLDATALOAD_0 5 (bvadd (_ bv63 6) ?x4319)) (stack_s x_0 w_3 w_2 x_CALLDATALOAD_0 4 (bvadd (_ bv62 6) ?x4305)))))
 (let (($x7172 (exc_halt_s 4)))
 (let (($x3747 (= $x7172 (or (exc_halt_s 3) (not (bvsle (_ bv0 6) (bvadd (_ bv63 6) (sc_s 3))))))))
 (let (($x10825 (forall ((w (_ BitVec 256)) )(let ((?x1656 (storage_s x_0 w_3 w_2 x_CALLDATALOAD_0 3 w)))
 (let ((?x7250 (storage_s x_0 w_3 w_2 x_CALLDATALOAD_0 4 w)))
 (= ?x7250 ?x1656))))
 ))
 (let (($x8977 (forall ((n (_ BitVec 6)) )(let ((?x8393 (stack_s x_0 w_3 w_2 x_CALLDATALOAD_0 3 n)))
 (let ((?x2692 (stack_s x_0 w_3 w_2 x_CALLDATALOAD_0 4 n)))
 (or (bvsle (bvadd (_ bv63 6) (sc_s 3)) n) (= ?x2692 ?x8393)))))
 ))
 (let ((?x275 (sc_s 3)))
 (let (($x2594 (= ?x4305 ?x275)))
 (let ((?x2542 (used_gas_s x_0 w_3 w_2 x_CALLDATALOAD_0 4)))
 (let ((?x4365 (f_CALLDATALOAD x_0 w_3 w_2 x_CALLDATALOAD_0 (stack_s x_0 w_3 w_2 x_CALLDATALOAD_0 3 (bvadd (_ bv63 6) ?x275)))))
 (let (($x9685 (not (= ((_ extract 6 6) (bvadd (_ bv1 7) (concat (_ bv0 1) (sc_s 2)))) (_ bv0 1)))))
 (let (($x247 (exc_halt_s 2)))
 (let (($x292 (exc_halt_s 3)))
 (let (($x590 (= $x292 (or $x247 $x9685))))
 (let (($x3428 (forall ((w (_ BitVec 256)) )(let ((?x7256 (storage_s x_0 w_3 w_2 x_CALLDATALOAD_0 2 w)))
 (let ((?x1656 (storage_s x_0 w_3 w_2 x_CALLDATALOAD_0 3 w)))
 (= ?x1656 ?x7256))))
 ))
 (let (($x9970 (forall ((n (_ BitVec 6)) )(let ((?x218 (sc_s 2)))
 (let (($x11461 (bvsle ?x218 n)))
 (let ((?x10474 (stack_s x_0 w_3 w_2 x_CALLDATALOAD_0 2 n)))
 (let ((?x8393 (stack_s x_0 w_3 w_2 x_CALLDATALOAD_0 3 n)))
 (or (= ?x8393 ?x10474) $x11461))))))
 ))
 (let (($x2016 (= ?x275 (bvadd (_ bv1 6) (sc_s 2)))))
 (let ((?x5511 (used_gas_s x_0 w_3 w_2 x_CALLDATALOAD_0 3)))
 (let (($x7098 (= $x247 (or (exc_halt_s 1) (not (bvsle (_ bv0 6) (bvadd (_ bv62 6) (sc_s 1))))))))
 (let (($x9976 (forall ((w (_ BitVec 256)) )(let ((?x9572 (storage_s x_0 w_3 w_2 x_CALLDATALOAD_0 1 w)))
 (let ((?x7256 (storage_s x_0 w_3 w_2 x_CALLDATALOAD_0 2 w)))
 (= ?x7256 ?x9572))))
 ))
 (let (($x149 (forall ((n (_ BitVec 6)) )(let ((?x154 (sc_s 1)))
 (let ((?x5676 (bvadd (_ bv62 6) ?x154)))
 (let (($x8928 (bvsle ?x5676 n)))
 (let ((?x7358 (stack_s x_0 w_3 w_2 x_CALLDATALOAD_0 1 n)))
 (let ((?x10474 (stack_s x_0 w_3 w_2 x_CALLDATALOAD_0 2 n)))
 (or (= ?x10474 ?x7358) $x8928)))))))
 ))
 (let ((?x154 (sc_s 1)))
 (let ((?x218 (sc_s 2)))
 (let (($x8033 (= ?x218 ?x154)))
 (let ((?x1056 (used_gas_s x_0 w_3 w_2 x_CALLDATALOAD_0 2)))
 (let (($x7421 (= (stack_s x_0 w_3 w_2 x_CALLDATALOAD_0 2 (bvadd (_ bv62 6) ?x218)) (stack_s x_0 w_3 w_2 x_CALLDATALOAD_0 1 (bvadd (_ bv63 6) ?x154)))))
 (let (($x5604 (= (stack_s x_0 w_3 w_2 x_CALLDATALOAD_0 2 (bvadd (_ bv63 6) ?x218)) (stack_s x_0 w_3 w_2 x_CALLDATALOAD_0 1 (bvadd (_ bv62 6) ?x154)))))
 (let (($x189 (exc_halt_s 1)))
 (let (($x9208 (= $x189 (or $x57 (not (= ((_ extract 6 6) (bvadd (_ bv1 7) (concat (_ bv0 1) ?x72))) (_ bv0 1)))))))
 (let (($x659 (forall ((w (_ BitVec 256)) )(let ((?x9851 (storage_s x_0 w_3 w_2 x_CALLDATALOAD_0 0 w)))
 (let ((?x9572 (storage_s x_0 w_3 w_2 x_CALLDATALOAD_0 1 w)))
 (= ?x9572 ?x9851))))
 ))
 (let (($x3458 (forall ((n (_ BitVec 6)) )(let ((?x72 (sc_s 0)))
 (let (($x10612 (bvsle ?x72 n)))
 (let ((?x2817 (stack_s x_0 w_3 w_2 x_CALLDATALOAD_0 0 n)))
 (let ((?x7358 (stack_s x_0 w_3 w_2 x_CALLDATALOAD_0 1 n)))
 (or (= ?x7358 ?x2817) $x10612))))))
 ))
 (let (($x6169 (= ?x154 (bvadd (_ bv1 6) ?x72))))
 (let (($x1728 (forall ((w0 (_ BitVec 256)) )(let (($x7127 (= (stack_s x_0 w_3 w_2 x_CALLDATALOAD_0 3 (bvadd (_ bv63 6) (sc_s 3))) w0)))
 (let ((?x10440 (f_CALLDATALOAD x_0 w_3 w_2 x_CALLDATALOAD_0 w0)))
 (= ?x10440 (ite $x7127 x_CALLDATALOAD_0 (_ bv0 256))))))
 ))
 (let (($x2693 (forall ((w (_ BitVec 256)) )(let ((?x9851 (storage_s x_0 w_3 w_2 x_CALLDATALOAD_0 0 w)))
 (= ?x9851 (_ bv0 256))))
 ))
 (let (($x2167 (= ?x10914 0)))
 (let (($x10766 (not $x57)))
 (let (($x3530 (= (stack_s x_0 w_3 w_2 x_CALLDATALOAD_0 0 (_ bv0 6)) x_0)))
 (let (($x7865 (= ?x72 (_ bv1 6))))
 (and $x7865 $x3530 $x10766 $x2167 $x2693 $x1728 (= (stack_s x_0 w_3 w_2 x_CALLDATALOAD_0 1 ?x72) w_3) (= (used_gas_s x_0 w_3 w_2 x_CALLDATALOAD_0 1) (+ 3 ?x10914)) $x6169 $x3458 $x659 $x9208 $x5604 $x7421 (= ?x1056 (+ 3 (used_gas_s x_0 w_3 w_2 x_CALLDATALOAD_0 1))) $x8033 $x149 $x9976 $x7098 (= (stack_s x_0 w_3 w_2 x_CALLDATALOAD_0 3 ?x218) w_2) (= ?x5511 (+ 3 ?x1056)) $x2016 $x9970 $x3428 $x590 (= ?x5458 ?x4365) (= ?x2542 (+ 3 ?x5511)) $x2594 $x8977 $x10825 $x3747 $x4336 (= (stack_s x_0 w_3 w_2 x_CALLDATALOAD_0 5 (bvadd (_ bv62 6) ?x4319)) ?x5458) $x6835 $x9760 $x3159 $x2610 $x8880 (= (stack_t x_0 w_3 w_2 x_CALLDATALOAD_0 1 ?x63) w_2) (= (used_gas_t x_0 w_3 w_2 x_CALLDATALOAD_0 1) (+ 3 ?x9345)) $x6089 $x7833 $x6087 $x7349 (= (stack_t x_0 w_3 w_2 x_CALLDATALOAD_0 2 (bvadd (_ bv63 6) ?x2714)) ?x8342) (= ?x506 (+ 3 (used_gas_t x_0 w_3 w_2 x_CALLDATALOAD_0 1))) $x6225 $x3199 $x5075 $x8830 (= (stack_t x_0 w_3 w_2 x_CALLDATALOAD_0 3 ?x2714) w_3) (= ?x6111 (+ 3 ?x506)) $x10335 $x11024 $x10680 $x2133 $x8512 $x8865 $x8292 $x4474 $x7248 $x2408 $x4557 $x8170 $x73 $x10416 $x58 $x4713 $x7729 (not (and $x10544 $x2886 $x8936 $x1253))))))))))))))))))))))))))))))))))))))))))))))))))))))))))))))))))))))))))))))))))))))))))))))))))
 )
(check-sat)
(get-proof)
